c Sudoku solution
p cnf 729 0
193 0
234 0
246 0
255 0
289 0
318 0
359 0
362 0
387 0
436 0
461 0
484 0
597 0
612 0
668 0
679 0
764 0
167 0
263 0
785 0
827 0
217 0
637 0
842 0
866 0
898 0
278 0
588 0
428 0
965 0
569 0
419 0
839 0
815 0
874 0
129 0
394 0
341 0
996 0
799 0
949 0
723 0
716 0
513 0
914 0
111 0
222 0
135 0
333 0
326 0
291 0
375 0
921 0
531 0
771 0
883 0
982 0
977 0
851 0
953 0
732 0
938 0
473 0
643 0
681 0
695 0
492 0
576 0
457 0
552 0
656 0
544 0
445 0
525 0
624 0
148 0
154 0
747 0
758 0
172 0
186 0
